/*********************************************
 * OPL 12.2 Data
 * Author: mireia.roca
 * Creation Date: 04/02/16
*********************************************/
Id=8040;
c=2;
n=20;
N={1,2,3,4,5,6,7,8,9,10,11,12,13,14,15,16,17,18,19,20};
D={21,22};
Q=500;
CJ=[{1},{2},{1},{2},{2},{1},{1,2},{2},{1},{2},{1,2},{1,2},{1},{1,2},{1},{1},{2},{1},{1},{2}];
d=[
[29,0],[0,32],[56,0],[0,51],[0,36],[60,0],[62,46],[0,44],[74,0],[0,46],[62,57],[31,74],[26,0],[32,70],[53,0],[28,0],[0,39],[55,0],[43,0],[0,72]];
m=[3,3];
K=[{1,2,3},{4,5,6}];
KT={1,2,3,4,5,6};
cv=50;
cost = #[
<1,2>:43.66,
<1,3>:82.02,
<1,4>:8.06,
<1,5>:25.08,
<1,6>:27.46,
<1,7>:28.86,
<1,8>:10.00,
<1,9>:55.66,
<1,10>:71.22,
<1,11>:87.21,
<1,12>:65.12,
<1,13>:11.70,
<1,14>:58.41,
<1,15>:36.67,
<1,16>:21.40,
<1,17>:14.14,
<1,18>:11.18,
<1,19>:54.41,
<1,20>:15.13,
<1,21>:68.45,
<1,22>:80.53,
<2,1>:43.66,
<2,3>:46.24,
<2,4>:46.14,
<2,5>:49.04,
<2,6>:64.00,
<2,7>:36.40,
<2,8>:47.52,
<2,9>:12.17,
<2,10>:32.65,
<2,11>:53.45,
<2,12>:72.18,
<2,13>:35.51,
<2,14>:31.40,
<2,15>:77.41,
<2,16>:62.77,
<2,17>:39.01,
<2,18>:54.71,
<2,19>:11.05,
<2,20>:52.43,
<2,21>:48.75,
<2,22>:96.83,
<3,1>:82.02,
<3,2>:46.24,
<3,4>:87.21,
<3,5>:94.15,
<3,6>:91.71,
<3,7>:59.17,
<3,8>:81.22,
<3,9>:41.30,
<3,10>:14.14,
<3,11>:8.06,
<3,12>:70.26,
<3,13>:77.80,
<3,14>:25.06,
<3,15>:106.94,
<3,16>:103.28,
<3,17>:71.22,
<3,18>:91.44,
<3,19>:42.43,
<3,20>:94.49,
<3,21>:87.09,
<3,22>:96.88,
<4,1>:8.06,
<4,2>:46.14,
<4,3>:87.21,
<4,5>:17.49,
<4,6>:33.24,
<4,7>:36.50,
<4,8>:17.46,
<4,9>:57.70,
<4,10>:75.69,
<4,11>:92.80,
<4,12>:73.16,
<4,13>:10.77,
<4,14>:64.35,
<4,15>:39.92,
<4,16>:16.64,
<4,17>:22.02,
<4,18>:13.42,
<4,19>:56.36,
<4,20>:7.62,
<4,21>:64.51,
<4,22>:88.10,
<5,1>:25.08,
<5,2>:49.04,
<5,3>:94.15,
<5,4>:17.49,
<5,6>:50.33,
<5,7>:51.09,
<5,8>:34.89,
<5,9>:58.73,
<5,10>:81.27,
<5,11>:100.65,
<5,12>:89.74,
<5,13>:19.03,
<5,14>:73.74,
<5,15>:54.92,
<5,16>:23.77,
<5,17>:37.85,
<5,18>:29.70,
<5,19>:57.31,
<5,20>:14.42,
<5,21>:52.35,
<5,22>:105.55,
<6,1>:27.46,
<6,2>:64.00,
<6,3>:91.71,
<6,4>:33.24,
<6,5>:50.33,
<6,7>:32.70,
<6,8>:18.38,
<6,9>:76.03,
<6,10>:84.15,
<6,11>:94.87,
<6,12>:50.22,
<6,13>:38.95,
<6,14>:66.65,
<6,15>:15.26,
<6,16>:33.53,
<6,17>:25.02,
<6,18>:20.81,
<6,19>:75.01,
<6,20>:36.62,
<6,21>:95.71,
<6,22>:57.97,
<7,1>:28.86,
<7,2>:36.40,
<7,3>:59.17,
<7,4>:36.50,
<7,5>:51.09,
<7,6>:32.70,
<7,8>:23.85,
<7,9>:47.30,
<7,10>:51.55,
<7,11>:62.80,
<7,12>:40.71,
<7,13>:32.25,
<7,14>:34.13,
<7,15>:47.85,
<7,16>:49.24,
<7,17>:14.87,
<7,18>:34.99,
<7,19>:46.57,
<7,20>:43.93,
<7,21>:79.21,
<7,22>:62.24,
<8,1>:10.00,
<8,2>:47.52,
<8,3>:81.22,
<8,4>:17.46,
<8,5>:34.89,
<8,6>:18.38,
<8,7>:23.85,
<8,9>:59.68,
<8,10>:71.69,
<8,11>:85.63,
<8,12>:56.32,
<8,13>:20.81,
<8,14>:56.64,
<8,15>:30.02,
<8,16>:25.96,
<8,17>:10.00,
<8,18>:11.18,
<8,19>:58.55,
<8,20>:23.35,
<8,21>:77.41,
<8,22>:70.66,
<9,1>:55.66,
<9,2>:12.17,
<9,3>:41.30,
<9,4>:57.70,
<9,5>:58.73,
<9,6>:76.03,
<9,7>:47.30,
<9,8>:59.68,
<9,10>:27.17,
<9,11>:49.16,
<9,12>:80.21,
<9,13>:46.96,
<9,14>:33.62,
<9,15>:89.56,
<9,16>:74.24,
<9,17>:51.09,
<9,18>:66.76,
<9,19>:1.41,
<9,20>:63.63,
<9,21>:46.87,
<9,22>:105.82,
<10,1>:71.22,
<10,2>:32.65,
<10,3>:14.14,
<10,4>:75.69,
<10,5>:81.27,
<10,6>:84.15,
<10,7>:51.55,
<10,8>:71.69,
<10,9>:27.17,
<10,11>:22.02,
<10,12>:70.88,
<10,13>:65.80,
<10,14>:20.10,
<10,15>:99.16,
<10,16>:92.10,
<10,17>:61.77,
<10,18>:81.27,
<10,19>:28.28,
<10,20>:82.73,
<10,21>:73.25,
<10,22>:97.80,
<11,1>:87.21,
<11,2>:53.45,
<11,3>:8.06,
<11,4>:92.80,
<11,5>:100.65,
<11,6>:94.87,
<11,7>:62.80,
<11,8>:85.63,
<11,9>:49.16,
<11,10>:22.02,
<11,12>:69.03,
<11,13>:83.76,
<11,14>:29.00,
<11,15>:110.14,
<11,16>:108.58,
<11,17>:75.69,
<11,18>:96.17,
<11,19>:50.25,
<11,20>:100.21,
<11,21>:95.13,
<11,22>:95.13,
<12,1>:65.12,
<12,2>:72.18,
<12,3>:70.26,
<12,4>:73.16,
<12,5>:89.74,
<12,6>:50.22,
<12,7>:40.71,
<12,8>:56.32,
<12,9>:80.21,
<12,10>:70.88,
<12,11>:69.03,
<12,13>:71.78,
<12,14>:51.26,
<12,15>:61.85,
<12,16>:81.01,
<12,17>:51.92,
<12,18>:66.01,
<12,19>:80.00,
<12,20>:79.63,
<12,21>:118.85,
<12,22>:26.93,
<13,1>:11.70,
<13,2>:35.51,
<13,3>:77.80,
<13,4>:10.77,
<13,5>:19.03,
<13,6>:38.95,
<13,7>:32.25,
<13,8>:20.81,
<13,9>:46.96,
<13,10>:65.80,
<13,11>:83.76,
<13,12>:71.78,
<13,14>:55.90,
<13,15>:48.27,
<13,16>:27.29,
<13,17>:20.12,
<13,18>:22.09,
<13,19>:45.62,
<13,20>:17.03,
<13,21>:56.80,
<13,22>:89.59,
<14,1>:58.41,
<14,2>:31.40,
<14,3>:25.06,
<14,4>:64.35,
<14,5>:73.74,
<14,6>:66.65,
<14,7>:34.13,
<14,8>:56.64,
<14,9>:33.62,
<14,10>:20.10,
<14,11>:29.00,
<14,12>:51.26,
<14,13>:55.90,
<14,15>:81.88,
<14,16>:79.81,
<14,17>:46.69,
<14,18>:67.18,
<14,19>:34.00,
<14,20>:71.87,
<14,21>:79.38,
<14,22>:78.11,
<15,1>:36.67,
<15,2>:77.41,
<15,3>:106.94,
<15,4>:39.92,
<15,5>:54.92,
<15,6>:15.26,
<15,7>:47.85,
<15,8>:30.02,
<15,9>:89.56,
<15,10>:99.16,
<15,11>:110.14,
<15,12>:61.85,
<15,13>:48.27,
<15,14>:81.88,
<15,16>:33.24,
<15,17>:38.64,
<15,18>:26.57,
<15,19>:88.46,
<15,20>:40.50,
<15,21>:104.40,
<15,22>:64.03,
<16,1>:21.40,
<16,2>:62.77,
<16,3>:103.28,
<16,4>:16.64,
<16,5>:23.77,
<16,6>:33.53,
<16,7>:49.24,
<16,8>:25.96,
<16,9>:74.24,
<16,10>:92.10,
<16,11>:108.58,
<16,12>:81.01,
<16,13>:27.29,
<16,14>:79.81,
<16,15>:33.24,
<16,17>:34.44,
<16,18>:15.13,
<16,19>:72.90,
<16,20>:11.18,
<16,21>:75.95,
<16,22>:91.48,
<17,1>:14.14,
<17,2>:39.01,
<17,3>:71.22,
<17,4>:22.02,
<17,5>:37.85,
<17,6>:25.02,
<17,7>:14.87,
<17,8>:10.00,
<17,9>:51.09,
<17,10>:61.77,
<17,11>:75.69,
<17,12>:51.92,
<17,13>:20.12,
<17,14>:46.69,
<17,15>:38.64,
<17,16>:34.44,
<17,18>:20.62,
<17,19>:50.04,
<17,20>:29.27,
<17,21>:73.82,
<17,22>:69.63,
<18,1>:11.18,
<18,2>:54.71,
<18,3>:91.44,
<18,4>:13.42,
<18,5>:29.70,
<18,6>:20.81,
<18,7>:34.99,
<18,8>:11.18,
<18,9>:66.76,
<18,10>:81.27,
<18,11>:96.17,
<18,12>:66.01,
<18,13>:22.09,
<18,14>:67.18,
<18,15>:26.57,
<18,16>:15.13,
<18,17>:20.62,
<18,19>:65.52,
<18,20>:15.81,
<18,21>:77.83,
<18,22>:77.83,
<19,1>:54.41,
<19,2>:11.05,
<19,3>:42.43,
<19,4>:56.36,
<19,5>:57.31,
<19,6>:75.01,
<19,7>:46.57,
<19,8>:58.55,
<19,9>:1.41,
<19,10>:28.28,
<19,11>:50.25,
<19,12>:80.00,
<19,13>:45.62,
<19,14>:34.00,
<19,15>:88.46,
<19,16>:72.90,
<19,17>:50.04,
<19,18>:65.52,
<19,20>:62.27,
<19,21>:46.10,
<19,22>:105.48,
<20,1>:15.13,
<20,2>:52.43,
<20,3>:94.49,
<20,4>:7.62,
<20,5>:14.42,
<20,6>:36.62,
<20,7>:43.93,
<20,8>:23.35,
<20,9>:63.63,
<20,10>:82.73,
<20,11>:100.21,
<20,12>:79.63,
<20,13>:17.03,
<20,14>:71.87,
<20,15>:40.50,
<20,16>:11.18,
<20,17>:29.27,
<20,18>:15.81,
<20,19>:62.27,
<20,21>:65.51,
<20,22>:93.23,
<21,1>:68.45,
<21,2>:48.75,
<21,3>:87.09,
<21,4>:64.51,
<21,5>:52.35,
<21,6>:95.71,
<21,7>:79.21,
<21,8>:77.41,
<21,9>:46.87,
<21,10>:73.25,
<21,11>:95.13,
<21,12>:118.85,
<21,13>:56.80,
<21,14>:79.38,
<21,15>:104.40,
<21,16>:75.95,
<21,17>:73.82,
<21,18>:77.83,
<21,19>:46.10,
<21,20>:65.51,
<22,1>:80.53,
<22,2>:96.83,
<22,3>:96.88,
<22,4>:88.10,
<22,5>:105.55,
<22,6>:57.97,
<22,7>:62.24,
<22,8>:70.66,
<22,9>:105.82,
<22,10>:97.80,
<22,11>:95.13,
<22,12>:26.93,
<22,13>:89.59,
<22,14>:78.11,
<22,15>:64.03,
<22,16>:91.48,
<22,17>:69.63,
<22,18>:77.83,
<22,19>:105.48,
<22,20>:93.23,
]#;


/*********************************************
 * Author: Zimmermann, Julia. Carvalheira, Rafael.
 * Creation Date: 30/01/25
*********************************************/

SCCVRPSPD

p = [
64 0
0 49
56 0
0 61
0 46
43 0
60 35
0 49
30 0
0 57
53 44
24 50
24 0
55 67
47 0
55 0
0 69
65 0
35 0
0 40
]

SCCVRPSPDM-M

m2m[1, 21, 1] = 29
m2m[2, 12, 2] = 32
m2m[3, 11, 1] = 56
m2m[4, 7, 2] = 51
m2m[5, 12, 2] = 36
m2m[6, 21, 1] = 60
m2m[7, 21, 1] = 62
m2m[8, 21, 2] = 44
m2m[9, 21, 1] = 74
m2m[10, 21, 2] = 46
m2m[11, 21, 2] = 57
m2m[12, 21, 1] = 31
m2m[13, 21, 1] = 26
m2m[14, 21, 2] = 70
m2m[15, 21, 1] = 53
m2m[16, 14, 1] = 21
m2m[16, 21, 1] = 7
m2m[17, 21, 2] = 39
m2m[18, 14, 1] = 55
m2m[19, 14, 1] = 18
m2m[19, 21, 1] = 25
m2m[20, 21, 2] = 72
m2m[21, 1, 1] = 64
m2m[21, 6, 1] = 43
m2m[21, 7, 1] = 60
m2m[21, 8, 2] = 49
m2m[21, 9, 1] = 30
m2m[21, 10, 2] = 57
m2m[21, 11, 2] = 44
m2m[21, 12, 1] = 24
m2m[21, 13, 1] = 24
m2m[21, 14, 2] = 67
m2m[21, 15, 1] = 47
m2m[21, 17, 2] = 69
m2m[21, 20, 2] = 40
